(set-info :smt-lib-version 2.6)
(set-logic QF_UFLRA)
(set-info :source |
MathSat group

|)
(set-info :category "random")
(set-info :status sat)
(declare-fun x0 () Real)
(declare-fun x1 () Real)
(declare-fun x2 () Real)
(declare-fun x3 () Real)
(declare-fun x4 () Real)
(declare-fun x5 () Real)
(declare-fun x6 () Real)
(declare-fun x7 () Real)
(declare-fun x8 () Real)
(declare-fun x9 () Real)
(declare-fun x10 () Real)
(declare-fun x11 () Real)
(declare-fun x12 () Real)
(declare-fun x13 () Real)
(declare-fun x14 () Real)
(declare-fun x15 () Real)
(declare-fun x16 () Real)
(declare-fun x17 () Real)
(declare-fun x18 () Real)
(declare-fun x19 () Real)
(declare-fun x20 () Real)
(declare-fun x21 () Real)
(declare-fun x22 () Real)
(declare-fun x23 () Real)
(declare-fun x24 () Real)
(declare-fun x25 () Real)
(declare-fun x26 () Real)
(declare-fun x27 () Real)
(declare-fun x28 () Real)
(declare-fun x29 () Real)
(declare-fun x30 () Real)
(declare-fun x31 () Real)
(declare-fun x32 () Real)
(declare-fun x33 () Real)
(declare-fun x34 () Real)
(declare-fun x35 () Real)
(declare-fun x36 () Real)
(declare-fun x37 () Real)
(declare-fun x38 () Real)
(declare-fun x39 () Real)
(declare-fun f0_1 (Real) Real)
(declare-fun f0_2 (Real Real) Real)
(declare-fun f0_3 (Real Real Real) Real)
(declare-fun f0_4 (Real Real Real Real) Real)
(declare-fun P0 () Bool)
(declare-fun P1 () Bool)
(declare-fun P2 () Bool)
(declare-fun P3 () Bool)
(declare-fun P4 () Bool)
(declare-fun P5 () Bool)
(declare-fun P6 () Bool)
(declare-fun P7 () Bool)
(declare-fun P8 () Bool)
(declare-fun P9 () Bool)
(declare-fun P10 () Bool)
(declare-fun P11 () Bool)
(declare-fun P12 () Bool)
(declare-fun P13 () Bool)
(declare-fun P14 () Bool)
(declare-fun P15 () Bool)
(declare-fun P16 () Bool)
(declare-fun P17 () Bool)
(declare-fun P18 () Bool)
(declare-fun P19 () Bool)
(declare-fun P20 () Bool)
(declare-fun P21 () Bool)
(declare-fun P22 () Bool)
(declare-fun P23 () Bool)
(declare-fun P24 () Bool)
(declare-fun P25 () Bool)
(declare-fun P26 () Bool)
(declare-fun P27 () Bool)
(declare-fun P28 () Bool)
(declare-fun P29 () Bool)
(declare-fun P30 () Bool)
(declare-fun P31 () Bool)
(declare-fun P32 () Bool)
(declare-fun P33 () Bool)
(declare-fun P34 () Bool)
(declare-fun P35 () Bool)
(declare-fun P36 () Bool)
(declare-fun P37 () Bool)
(declare-fun P38 () Bool)
(declare-fun P39 () Bool)
(assert (let ((?v_149 (<= (+ (- (* 5 x33) (* 56 x38)) (* 14 x38)) 46)) (?v_78 (< (+ (- (* 18 x22) (* 56 x33)) (* 53 x27)) 0)) (?v_23 (< (- (- (* 34 x10) (* 46 x29)) (* 6 x34)) 40)) (?v_41 (< (+ (- (* 46 x2) (* 56 x13)) (* 53 x11)) 44)) (?v_81 (<= (+ (- (* 23 x31) (* 55 x34)) (* 49 x3)) 0)) (?v_83 (< (- (+ (* 39 x7) (* 6 x39)) (* 25 x17)) 50)) (?v_76 (* 38 x10)) (?v_21 (f0_1 x16))) (let ((?v_116 (= ?v_21 x38)) (?v_131 (distinct (f0_2 x6 x11) (f0_2 x25 x34))) (?v_32 (distinct (f0_2 x10 x12) (f0_2 x33 x37))) (?v_9 (f0_1 x18))) (let ((?v_85 (= (f0_2 x23 x22) ?v_9)) (?v_110 (= (f0_1 x12) x38)) (?v_10 (f0_1 x1))) (let ((?v_69 (= (f0_1 x22) ?v_10)) (?v_25 (f0_1 x32))) (let ((?v_37 (distinct ?v_21 ?v_25)) (?v_89 (= x8 x35)) (?v_8 (f0_1 x28))) (let ((?v_42 (distinct x23 ?v_8)) (?v_43 (= x19 ?v_8)) (?v_68 (= (f0_2 x4 x26) ?v_10)) (?v_104 (distinct x36 (f0_2 x0 x24))) (?v_2 (f0_1 x7))) (let ((?v_107 (= ?v_2 x34)) (?v_38 (= (f0_2 x27 x2) (f0_2 x25 x22))) (?v_165 (= (f0_2 x19 x23) (f0_2 x35 x3))) (?v_105 (distinct (f0_2 x28 x6) x28)) (?v_64 (= (f0_1 x39) x8)) (?v_108 (= x13 (f0_1 x0))) (?v_189 (distinct x31 (f0_2 x2 x27))) (?v_19 (= x33 ?v_2)) (?v_201 (= x39 x30)) (?v_45 (= (f0_1 x9) (f0_2 x35 x32))) (?v_77 (= x8 x24)) (?v_11 (distinct x32 ?v_9)) (?v_134 (distinct x17 (f0_1 x37))) (?v_40 (= x7 ?v_25)) (?v_141 (= (f0_1 x36) (f0_1 x17))) (?v_99 (distinct ?v_2 (f0_2 x0 x15))) (?v_15 (= (f0_2 x33 x19) (f0_2 x31 x5))) (?v_3 (distinct ?v_2 (f0_1 x14))) (?v_119 (= (f0_1 x30) x34)) (?v_123 (distinct (f0_2 x11 x36) x31)) (?v_98 (= (f0_2 x18 x14) (f0_2 x34 x1))) (?v_7 (= (f0_1 x20) (f0_2 x6 x26))) (?v_35 (distinct ?v_10 x22)) (?v_36 (distinct (f0_1 x3) (f0_2 x29 x22))) (?v_14 (distinct (f0_2 x37 x14) x9)) (?v_56 (= (f0_2 x31 x27) x30)) (?v_109 (= (f0_2 x2 x10) (f0_1 x23))) (?v_101 (distinct x9 x18)) (?v_39 (not ?v_149)) (?v_199 (not ?v_42)) (?v_30 (not P20)) (?v_6 (not ?v_110)) (?v_5 (not P27)) (?v_92 (not P13)) (?v_136 (not P15)) (?v_4 (not P34)) (?v_16 (not ?v_116)) (?v_196 (not P37)) (?v_27 (not ?v_131)) (?v_13 (not P5)) (?v_20 (not P19))) (let ((?v_139 (not ?v_56)) (?v_26 (not ?v_11)) (?v_44 (not ?v_99)) (?v_12 (not ?v_14)) (?v_71 (not ?v_98)) (?v_168 (not ?v_7)) (?v_66 (not ?v_77)) (?v_53 (not ?v_38)) (?v_198 (not ?v_68)) (?v_33 (not ?v_141)) (?v_63 (not P24)) (?v_126 (not ?v_3)) (?v_48 (not P12)) (?v_34 (not ?v_19)) (?v_54 (not P33)) (?v_138 (not P30)) (?v_82 (not P1)) (?v_132 (not ?v_40)) (?v_79 (not ?v_201)) (?v_72 (not P9)) (?v_59 (not P4)) (?v_61 (not ?v_101)) (?v_172 (not ?v_41)) (?v_52 (not P16)) (?v_65 (not P18)) (?v_80 (not P39)) (?v_70 (not P10)) (?v_137 (not ?v_119)) (?v_121 (not P32)) (?v_75 (not P14)) (?v_74 (not P25)) (?v_125 (not P8)) (?v_187 (not ?v_43)) (?v_118 (not ?v_37)) (?v_62 (not P22)) (?v_96 (not ?v_64)) (?v_97 (not ?v_32)) (?v_95 (not ?v_108)) (?v_176 (not P7)) (?v_130 (not ?v_78)) (?v_120 (not ?v_83)) (?v_148 (not P29)) (?v_154 (not ?v_89)) (?v_115 (not ?v_35)) (?v_191 (not P31)) (?v_106 (not ?v_36)) (?v_164 (not P36)) (?v_122 (not ?v_85)) (?v_94 (not P2)) (?v_169 (not P11)) (?v_111 (not P21)) (?v_155 (not P6)) (?v_151 (not ?v_45)) (?v_124 (not ?v_107)) (?v_145 (not P38)) (?v_140 (not ?v_109)) (?v_127 (not ?v_189)) (?v_157 (not P23)) (?v_162 (not ?v_69)) (?v_144 (not ?v_105)) (?v_156 (not ?v_81)) (?v_153 (not ?v_134)) (?v_163 (not P0)) (?v_150 (not P26)) (?v_158 (not P28)) (?v_173 (not P17)) (?v_181 (not P35)) (?v_174 (not ?v_123))) (let ((?v_206 (or P11 ?v_72)) (?v_178 (not ?v_104)) (?v_183 (not P3)) (?v_195 (not ?v_23)) (?v_193 (or ?v_137 ?v_62)) (?v_203 (not ?v_165)) (?v_1 (<= (+ (* 35 x24) (* 22 x20) (* 29 x12)) 52)) (?v_49 (< (+ (* 38 x25) (* 33 x3) (* 47 x10)) 22))) (let ((?v_152 (not ?v_49)) (?v_100 (not ?v_1)) (?v_142 (<= (- (+ (* 43 x26) (* 33 x5)) 0) 42))) (let ((?v_146 (not ?v_142)) (?v_135 (< (+ (* 5 x7) (* 3 x9)) 49))) (let ((?v_207 (not ?v_135)) (?v_29 (< (- (+ (* (- 45) x34) (* 33 x34)) (* 43 x28)) 14))) (let ((?v_0 (not ?v_29)) (?v_22 (< (+ (* (- 7) x35) (* 33 x1) x11) (- 37))) (?v_31 (< (- (- (* 44 x34) (* 52 x20)) 0) (- 58))) (?v_87 (< (+ (* (- 47) x35) (* 43 x9) (* 42 x20)) 49)) (?v_84 (< (+ (- (* 29 x11) (* 26 x16)) (* 47 x20)) (- 18))) (?v_182 (<= (- (- (* 13 x26) (* 10 x34)) (* 31 x36)) (- 7)))) (let ((?v_190 (not ?v_182)) (?v_57 (<= (+ (* 39 x20) (* 50 x36) (* 42 x1)) (- 7))) (?v_24 (<= (- (+ (* (- 16) x8) (* 56 x18)) (* 32 x3)) (- 24)))) (let ((?v_179 (not ?v_24)) (?v_18 (< (+ (- (* 9 x5) (* 44 x18)) (* 50 x21)) (- 50)))) (let ((?v_28 (not ?v_18)) (?v_91 (< (+ (* 14 x0) (* 42 x34) (* 5 x25)) (- 52)))) (let ((?v_17 (not ?v_91)) (?v_86 (<= (- (- (* (- 19) x12) (* 37 x19)) 0) (- 19)))) (let ((?v_67 (not ?v_86)) (?v_90 (<= (+ (- (* (- 24) x23) (* 37 x2)) (* 2 x39)) (- 25))) (?v_55 (<= (- (- 0 (* 21 x15)) (* 53 x36)) (- 56)))) (let ((?v_171 (not ?v_55)) (?v_166 (< (+ (* (- 23) x20) (* 5 x37) (* 32 x19)) 26))) (let ((?v_73 (not ?v_166)) (?v_58 (< (- (- (* 45 x39) (* 7 x15)) x13) (- 53))) (?v_46 (distinct (+ (* (- 51) x30) (* 39 x13) (* 51 x25)) (- 49))) (?v_175 (<= (+ (- (* (- 22) x4) (* 2 x37)) (* 34 x23)) 29))) (let ((?v_113 (not ?v_175)) (?v_170 (<= (+ (* (- 31) x33) (* 42 x2) (* 12 x36)) (- 45)))) (let ((?v_47 (not ?v_170)) (?v_51 (< (- (- (* (- 16) x2) (* 3 x14)) (* 7 x19)) (- 5))) (?v_102 (< (+ (* (- 36) x21) ?v_76 (* 43 x34)) 53))) (let ((?v_50 (not ?v_102)) (?v_128 (not ?v_46)) (?v_88 (not ?v_22)) (?v_112 (not ?v_51)) (?v_60 (not ?v_57)) (?v_103 (< (- (- (* 57 x13) (* 54 x10)) (* 55 x38)) (- 20))) (?v_129 (<= (- (+ (* (- 21) x26) x21) (* 3 x32)) 13)) (?v_159 (<= (- (- (* 37 x34) (* 19 x16)) (* 35 x33)) (- 47)))) (let ((?v_147 (not ?v_159)) (?v_160 (distinct (+ (- (* (- 6) x35) ?v_76) (* 42 x8)) (- 47))) (?v_180 (<= (+ (* (- 57) x30) (* 22 x19) (* 26 x21)) 50))) (let ((?v_202 (not ?v_180)) (?v_93 (= (+ (- (* 35 x20) (* 37 x26)) (* 57 x12)) (- 27)))) (let ((?v_204 (not ?v_93)) (?v_194 (not ?v_103)) (?v_114 (not ?v_31)) (?v_143 (<= (- (+ (* (- 5) x35) (* 6 x24)) (* 42 x5)) 46))) (let ((?v_177 (not ?v_143)) (?v_117 (not ?v_87)) (?v_133 (= (- (- (* 33 x6) (* 11 x12)) (* 36 x1)) (- 30))) (?v_167 (= (+ (* (- 6) x37) (* 19 x28) (* 19 x25)) 30))) (let ((?v_185 (not ?v_167)) (?v_197 (<= (- (+ (* (- 48) x13) (* 45 x23)) 0) 57)) (?v_192 (not ?v_133)) (?v_161 (not ?v_84)) (?v_200 (not ?v_58)) (?v_184 (not ?v_129)) (?v_188 (or ?v_177 ?v_152)) (?v_208 (not ?v_90)) (?v_186 (not ?v_160))) (let ((?v_205 (not ?v_197))) (and (and (and (and (and (and (and (and (and (and (and (and (and (and (and (and (and (and (and (and (and (and (and (and (and (and (and (and (and (and (and (and (and (and (and (and (and (and (and (and (and (and (and (and (and (and (and (and (and (and (and (and (and (and (and (and (and (and (and (and (and (and (and (and (and (and (and (and (and (and (and (and (and (and (and (and (and (and (and (and (and (and (and (and (and (and (and (and (and (and (and (and (and (and (and (and (and (and (and (and (and (and (and (and (and (and (and (and (and (and (and (and (and (and (and (and (and (and (and (and (and (and (and (and (and (and (and (and (and (and (and (and (and (and (and (and (and (and (and (and (and (and (and (and (and (and (and (and (and (and (and (and (and (and (and (and (and (and (and (and (and (and (and (and (and (and (and (and (and (and (and (and (and (and (and (and (and (and (and (and (and (and (and (and (and (and (and (and (and (and (and (and (and (and (and (and (and (and (and (and (and (and (and (and (and (and (and (and (and (and (and (and (and (and (and (and (and (and (and (and (and (and (and (and (and (and (and (and (and (and (and (and (and (and (and (and (and (and (and (and (and (and (and (and (and (and (and (and (and (and (and (and (and (and (and (and (and (and (and (and (and (and (and (and (and (and (and (and (and (and (and (and (and (and (and (and (and (and (and (and (and (and (and (and (and (and (and (and (and (and (and (and (and (and (and (and (and (and (and (and (and (and (and (and (and (and (and (and (and (and (and (and (and (and (and (and (and (and (and (and (and (and (and (and (and (and (and (and (and (and (and (and (and (and (and (and (and (and (and (and (and (and (and (and (and (and (and (and (and (and (and (and (and (and (and (and (and (and (and (and (and (and (and (and (and (and (and (and (and (and (and (and (and (and (and (and (and (and (and (and (and (and (and (and (and (and (and (and (and (and (and (and (and (and (and (and (and (and (and (and (and (and (and (and (and (and (and (and (and (and (and (and (and (and (and (and (and (and (and (and (and (and (and (and (and (and (and (and (and (and (and (and (and (and (and (and (and (and (and (and (and (and (and (and (and (and (and (and (and (and (and (and (and (and (and (and (and (and (and (and (and (and (and (and (and (and (and (and (and (and (and (and (and (and (and (and (and (and (and (or (or ?v_0 ?v_1) P9) (or (or ?v_19 ?v_39) P24)) (or (or ?v_22 ?v_35) ?v_199)) (or (or P8 P32) ?v_23)) (or (or ?v_30 ?v_31) ?v_0)) (or (or ?v_6 ?v_5) ?v_92)) (or (or ?v_136 ?v_4) ?v_0)) (or (or P29 P23) (not ?v_15))) (or (or ?v_1 ?v_3) ?v_16)) (or (or ?v_3 P6) ?v_196)) (or (or ?v_27 ?v_4) ?v_87)) (or (or ?v_84 ?v_13) P17)) (or (or P8 ?v_20) ?v_139)) (or (or ?v_5 ?v_190) ?v_26)) (or (or ?v_44 ?v_12) ?v_71)) (or (or ?v_41 ?v_6) ?v_7)) (or (or ?v_57 P3) ?v_168)) (or (or ?v_66 ?v_53) ?v_43)) (or (or ?v_179 P39) ?v_85)) (or (or ?v_28 ?v_198) ?v_11)) (or (or ?v_109 ?v_12) ?v_13)) (or (or ?v_14 ?v_105) ?v_33)) (or (or ?v_11 P15) ?v_15)) (or (or ?v_63 ?v_81) ?v_126)) (or (or ?v_17 ?v_16) P7)) (or (or ?v_17 P6) ?v_18)) (or (or ?v_48 ?v_34) ?v_4)) (or (or ?v_64 ?v_32) ?v_20)) (or (or ?v_37 P7) ?v_22)) (or (or ?v_36 ?v_0) ?v_54)) (or (or ?v_67 P10) ?v_18)) (or (or ?v_138 P7) ?v_82)) (or (or ?v_23 ?v_107) ?v_24)) (or (or ?v_132 ?v_4) P7)) (or (or ?v_90 ?v_171) ?v_18)) (or (or ?v_26 ?v_27) ?v_49)) (or (or ?v_28 ?v_22) ?v_79)) (or (or ?v_29 ?v_45) ?v_69)) (or (or ?v_30 ?v_72) ?v_31)) (or (or ?v_73 ?v_0) ?v_32)) (or (or ?v_33 ?v_59) P37)) (or (or ?v_34 P11) ?v_35)) (or (or ?v_58 ?v_36) ?v_61)) (or (or ?v_46 ?v_113) ?v_37)) (or (or P33 ?v_38) ?v_39)) (or (or ?v_47 ?v_40) ?v_172)) (or (or ?v_36 ?v_11) ?v_5)) (or (or ?v_29 P1) ?v_42)) (or (or ?v_52 P2) ?v_35)) (or (or ?v_32 ?v_43) ?v_44)) (or (or ?v_27 P25) ?v_38)) (or (or ?v_51 ?v_104) P20)) (or (or ?v_65 ?v_45) ?v_80)) (or (or P22 ?v_50) ?v_28)) (or (or ?v_128 P6) ?v_47)) (or (or ?v_48 ?v_70) P14)) (or (or ?v_152 ?v_137) ?v_88)) (or (or ?v_50 ?v_112) ?v_52)) (or (or ?v_53 P9) ?v_11)) (or (or ?v_121 ?v_75) ?v_50)) (or (or ?v_54 ?v_55) ?v_74)) (or (or P32 ?v_125) ?v_187)) (or (or ?v_48 ?v_56) ?v_118)) (or (or ?v_60 ?v_13) ?v_62)) (or (or ?v_58 ?v_41) ?v_59)) (or (or P10 ?v_43) ?v_60)) (or (or ?v_61 ?v_62) ?v_63)) (or (or ?v_7 ?v_96) P18)) (or (or ?v_65 ?v_66) ?v_97)) (or (or ?v_67 ?v_68) ?v_95)) (or (or P8 ?v_31) ?v_103)) (or (or ?v_69 ?v_34) P34)) (or (or ?v_70 ?v_71) P27)) (or (or ?v_72 ?v_129) ?v_26)) (or (or ?v_176 ?v_130) ?v_73)) (or (or ?v_28 ?v_52) ?v_120)) (or (or ?v_46 ?v_47) ?v_74)) (or (or ?v_26 ?v_33) ?v_75)) (or (or ?v_100 P7) ?v_4)) (or (or ?v_148 ?v_154) ?v_147)) (or (or ?v_160 ?v_77) ?v_36)) (or (or ?v_134 ?v_40) ?v_78)) (or (or ?v_74 P12) ?v_79)) (or (or ?v_115 ?v_44) ?v_80)) (or (or ?v_81 ?v_51) ?v_202)) (or (or ?v_191 P17) ?v_106)) (or (or ?v_75 ?v_75) ?v_66)) (or (or ?v_82 ?v_83) ?v_84)) (or (or ?v_66 ?v_164) ?v_122)) (or (or ?v_204 ?v_94) ?v_64)) (or (or ?v_15 ?v_86) ?v_87)) (or (or ?v_73 ?v_74) P3)) (or (or ?v_88 ?v_169) ?v_89)) (or (or ?v_90 ?v_91) ?v_92)) (or (or P28 P39) ?v_93)) (or (or ?v_94 P13) P9)) (or (or ?v_95 ?v_86) ?v_96)) (or (or ?v_31 ?v_5) ?v_66)) (or (or ?v_97 ?v_65) ?v_98)) (or (or ?v_86 ?v_4) P7)) (or (or ?v_111 ?v_99) P10)) (or (or ?v_16 ?v_53) ?v_100)) (or (or ?v_40 ?v_101) ?v_29)) (or (or ?v_87 ?v_155) ?v_78)) (or (or P34 ?v_89) P14)) (or (or ?v_74 ?v_62) ?v_51)) (or (or ?v_102 P3) ?v_194)) (or (or ?v_114 P2) ?v_104)) (or (or P7 ?v_151) ?v_102)) (or (or P34 ?v_56) ?v_39)) (or (or P25 ?v_90) ?v_177)) (or (or ?v_95 ?v_0) ?v_105)) (or (or ?v_11 ?v_106) P29)) (or (or ?v_124 ?v_103) ?v_106)) (or (or ?v_108 ?v_145) ?v_13)) (or (or ?v_117 ?v_58) ?v_86)) (or (or ?v_140 ?v_70) ?v_4)) (or (or ?v_70 ?v_93) ?v_110)) (or (or ?v_53 ?v_24) ?v_6)) (or (or ?v_111 ?v_66) ?v_112)) (or (or ?v_84 ?v_55) ?v_36)) (or (or ?v_113 ?v_114) P33)) (or (or ?v_28 ?v_105) ?v_127)) (or (or ?v_115 ?v_66) P16)) (or (or ?v_146 ?v_116) ?v_69)) (or (or ?v_117 ?v_118) ?v_92)) (or (or ?v_13 ?v_32) ?v_53)) (or (or ?v_123 ?v_119) ?v_86)) (or (or ?v_32 ?v_56) ?v_79)) (or (or ?v_101 ?v_101) ?v_0)) (or (or ?v_62 P18) ?v_120)) (or (or ?v_133 P23) ?v_13)) (or (or ?v_16 P1) ?v_56)) (or (or ?v_68 ?v_29) P39)) (or (or ?v_135 ?v_41) ?v_121)) (or (or ?v_122 P26) ?v_123)) (or (or ?v_1 ?v_23) ?v_99)) (or (or ?v_64 ?v_157) ?v_70)) (or (or P30 P35) ?v_73)) (or (or ?v_162 ?v_124) P29)) (or (or P7 ?v_84) ?v_120)) (or (or ?v_20 ?v_165) P2)) (or (or ?v_125 ?v_78) ?v_85)) (or (or P1 ?v_126) ?v_48)) (or (or ?v_18 ?v_127) ?v_128)) (or (or ?v_129 ?v_15) ?v_109)) (or (or P8 ?v_130) ?v_24)) (or (or P22 ?v_99) P28)) (or (or ?v_53 ?v_80) ?v_66)) (or (or P8 ?v_66) ?v_104)) (or (or ?v_63 ?v_103) ?v_50)) (or (or P14 ?v_144) ?v_131)) (or (or ?v_33 ?v_46) ?v_123)) (or (or ?v_36 ?v_185) ?v_82)) (or (or ?v_96 P25) ?v_132)) (or (or ?v_109 P36) ?v_40)) (or (or P21 ?v_133) P13)) (or (or ?v_60 P28) P24)) (or (or ?v_39 ?v_53) ?v_22)) (or (or ?v_40 ?v_125) ?v_101)) (or (or ?v_31 ?v_132) P27)) (or (or P31 ?v_24) P25)) (or (or ?v_18 ?v_197) ?v_156)) (or (or ?v_153 ?v_135) P37)) (or (or ?v_73 ?v_3) ?v_62)) (or (or P6 ?v_136) P35)) (or (or P6 ?v_91) ?v_137)) (or (or ?v_138 ?v_125) ?v_116)) (or (or P7 ?v_139) ?v_140)) (or (or P26 ?v_38) P12)) (or (or ?v_141 ?v_31) P16)) (or (or ?v_120 P39) ?v_142)) (or (or P33 P6) ?v_105)) (or (or ?v_44 ?v_138) ?v_81)) (or (or ?v_143 ?v_90) ?v_192)) (or (or ?v_144 ?v_64) ?v_161)) (or (or P18 ?v_124) ?v_163)) (or (or ?v_145 P5) ?v_30)) (or (or ?v_139 ?v_90) ?v_28)) (or (or ?v_18 ?v_91) ?v_90)) (or (or ?v_14 ?v_135) ?v_146)) (or (or ?v_30 ?v_140) ?v_59)) (or (or ?v_129 ?v_134) ?v_131)) (or (or P16 ?v_50) ?v_28)) (or (or ?v_100 ?v_52) ?v_150)) (or (or ?v_83 ?v_97) ?v_147)) (or (or ?v_40 ?v_54) ?v_1)) (or (or ?v_43 ?v_114) P23)) (or (or ?v_109 ?v_144) ?v_31)) (or (or ?v_64 ?v_148) ?v_130)) (or (or P2 P5) P28)) (or (or ?v_35 ?v_149) ?v_96)) (or (or P15 ?v_72) ?v_83)) (or (or ?v_26 ?v_134) ?v_102)) (or (or ?v_150 P39) ?v_151)) (or (or ?v_152 ?v_23) ?v_158)) (or (or ?v_84 P24) ?v_32)) (or (or ?v_7 ?v_86) ?v_46)) (or (or ?v_173 ?v_146) ?v_119)) (or (or ?v_101 ?v_153) ?v_95)) (or (or P6 ?v_3) ?v_64)) (or (or ?v_119 ?v_181) ?v_125)) (or (or P16 ?v_137) ?v_48)) (or (or ?v_53 ?v_98) ?v_135)) (or (or ?v_151 ?v_174) ?v_78)) (or (or ?v_135 ?v_103) ?v_20)) (or (or ?v_14 ?v_42) ?v_141)) (or (or ?v_115 P29) P12)) (or (or ?v_91 ?v_134) ?v_0)) (or (or ?v_154 P23) ?v_138)) (or (or P2 P26) ?v_155)) (or (or ?v_156 ?v_157) ?v_98)) (or (or ?v_141 ?v_110) ?v_66)) (or (or ?v_27 ?v_158) ?v_7)) (or (or ?v_159 ?v_71) ?v_120)) (or ?v_206 P39)) (or (or ?v_70 P16) ?v_12)) (or (or ?v_151 ?v_101) ?v_68)) (or (or ?v_125 ?v_44) ?v_160)) (or (or ?v_14 ?v_45) ?v_0)) (or (or ?v_130 ?v_89) ?v_160)) (or (or ?v_30 ?v_97) ?v_113)) (or (or ?v_28 ?v_139) ?v_99)) (or (or ?v_105 ?v_161) P1)) (or (or P7 P9) ?v_104)) (or (or ?v_126 ?v_64) ?v_162)) (or (or ?v_126 ?v_92) ?v_163)) (or (or ?v_164 P34) ?v_74)) (or (or ?v_61 P12) ?v_130)) (or (or P29 ?v_160) ?v_133)) (or (or P32 ?v_136) ?v_152)) (or (or ?v_165 ?v_111) ?v_136)) (or (or ?v_3 ?v_112) P35)) (or (or ?v_48 P11) ?v_161)) (or (or ?v_115 ?v_40) P20)) (or (or P1 ?v_117) ?v_109)) (or (or P0 ?v_178) ?v_99)) (or (or ?v_166 ?v_200) ?v_39)) (or (or ?v_161 ?v_4) ?v_110)) (or (or ?v_29 ?v_158) ?v_167)) (or (or ?v_168 ?v_22) ?v_146)) (or (or ?v_169 ?v_47) ?v_163)) (or (or ?v_79 ?v_61) ?v_170)) (or (or P7 ?v_37) P31)) (or (or ?v_183 ?v_124) ?v_102)) (or (or ?v_171 ?v_184) ?v_83)) (or (or ?v_15 ?v_164) ?v_127)) (or (or ?v_99 ?v_124) ?v_172)) (or (or ?v_195 ?v_154) ?v_109)) (or (or ?v_13 ?v_136) ?v_4)) (or (or ?v_111 ?v_101) ?v_5)) (or (or ?v_156 ?v_60) P9)) (or (or ?v_24 ?v_80) ?v_59)) (or (or ?v_171 ?v_173) ?v_100)) (or (or ?v_174 P38) ?v_53)) (or (or P29 ?v_117) ?v_160)) (or (or ?v_57 ?v_18) P34)) (or (or ?v_163 ?v_96) ?v_175)) (or (or ?v_111 P33) ?v_85)) (or (or ?v_54 ?v_176) ?v_92)) (or (or ?v_154 ?v_49) ?v_109)) (or (or ?v_149 ?v_90) ?v_118)) (or ?v_193 P27)) (or (or ?v_124 ?v_96) ?v_54)) (or (or P14 ?v_33) ?v_177)) (or (or ?v_39 ?v_44) ?v_164)) (or (or ?v_97 ?v_178) ?v_56)) (or (or ?v_148 ?v_5) ?v_77)) (or (or ?v_46 ?v_0) ?v_20)) (or (or ?v_47 ?v_145) ?v_94)) (or (or ?v_55 ?v_73) ?v_162)) (or (or ?v_113 ?v_179) ?v_102)) (or (or P23 ?v_88) ?v_155)) (or (or ?v_135 ?v_132) ?v_180)) (or (or ?v_115 ?v_51) ?v_94)) (or (or ?v_125 ?v_46) ?v_83)) (or (or ?v_101 ?v_33) ?v_46)) (or (or P25 P15) P3)) (or (or P6 ?v_64) ?v_88)) (or (or P4 ?v_57) ?v_40)) (or (or ?v_134 ?v_23) ?v_45)) (or (or ?v_98 ?v_156) P26)) (or (or P34 ?v_94) ?v_121)) (or (or ?v_85 P25) P29)) (or (or ?v_70 ?v_119) ?v_133)) (or (or ?v_59 ?v_72) ?v_134)) (or (or ?v_83 ?v_71) P39)) (or (or P25 ?v_181) ?v_32)) (or (or ?v_100 P8) ?v_161)) (or (or ?v_100 ?v_137) ?v_84)) (or (or ?v_46 ?v_67) ?v_5)) (or (or ?v_153 ?v_81) ?v_14)) (or ?v_188 ?v_41)) (or (or ?v_38 ?v_113) ?v_99)) (or (or ?v_5 P11) P7)) (or (or ?v_90 ?v_54) ?v_7)) (or (or ?v_208 ?v_17) ?v_48)) (or (or ?v_137 ?v_71) P14)) (or (or ?v_79 ?v_151) ?v_93)) (or (or ?v_67 ?v_32) ?v_162)) (or (or P27 P1) ?v_85)) (or (or P9 ?v_180) ?v_34)) (or (or ?v_158 ?v_113) P38)) (or (or ?v_182 P3) P8)) (or (or ?v_183 ?v_35) P5)) (or (or ?v_19 ?v_128) P16)) (or (or ?v_155 ?v_160) ?v_128)) (or (or ?v_83 ?v_24) ?v_184)) (or (or ?v_166 ?v_37) ?v_80)) (or (or ?v_185 P34) P36)) (or (or P8 P26) ?v_82)) (or (or ?v_136 ?v_165) ?v_142)) (or (or ?v_130 ?v_186) ?v_108)) (or (or ?v_31 ?v_128) ?v_137)) (or (or ?v_64 ?v_151) ?v_73)) (or (or ?v_134 ?v_99) ?v_101)) (or (or ?v_34 ?v_74) ?v_33)) (or (or ?v_185 ?v_94) ?v_83)) (or (or P35 ?v_73) ?v_32)) (or (or ?v_184 ?v_150) ?v_85)) (or (or ?v_139 ?v_122) ?v_141)) (or (or ?v_111 ?v_83) ?v_67)) (or (or ?v_13 ?v_151) ?v_43)) (or (or P38 ?v_0) ?v_74)) (or (or ?v_35 ?v_39) ?v_99)) (or (or ?v_104 P24) ?v_150)) (or (or ?v_41 ?v_98) ?v_175)) (or (or ?v_46 P26) ?v_186)) (or (or ?v_70 ?v_166) ?v_60)) (or (or ?v_63 P9) ?v_29)) (or (or ?v_187 ?v_136) ?v_143)) (or (or ?v_170 ?v_151) ?v_46)) (or ?v_188 P27)) (or (or ?v_89 ?v_74) ?v_50)) (or (or ?v_123 ?v_105) ?v_119)) (or (or ?v_158 P16) P7)) (or (or ?v_105 ?v_186) ?v_142)) (or (or ?v_73 ?v_95) P18)) (or (or ?v_189 ?v_50) ?v_134)) (or (or ?v_30 ?v_64) ?v_121)) (or (or ?v_190 ?v_95) ?v_82)) (or (or ?v_35 ?v_134) ?v_173)) (or (or ?v_160 P24) ?v_191)) (or (or ?v_73 ?v_23) P20)) (or (or ?v_47 ?v_192) ?v_49)) (or (or ?v_163 P2) ?v_65)) (or ?v_193 ?v_171)) (or (or ?v_180 ?v_194) P26)) (or (or P27 P9) ?v_175)) (or (or ?v_50 ?v_75) ?v_130)) (or (or ?v_28 ?v_117) ?v_155)) (or (or ?v_3 ?v_86) ?v_191)) (or (or ?v_27 ?v_105) P22)) (or (or ?v_155 ?v_136) ?v_110)) (or (or P23 ?v_33) ?v_73)) (or (or ?v_138 ?v_67) ?v_47)) (or (or ?v_40 ?v_137) ?v_195)) (or (or ?v_114 ?v_37) ?v_130)) (or (or ?v_70 ?v_131) ?v_66)) (or (or ?v_81 ?v_139) P17)) (or (or P0 ?v_98) ?v_130)) (or (or ?v_32 ?v_27) ?v_41)) (or (or ?v_122 ?v_3) ?v_190)) (or (or ?v_160 ?v_173) ?v_72)) (or (or ?v_150 ?v_125) ?v_136)) (or (or ?v_196 ?v_7) ?v_0)) (or (or ?v_80 ?v_194) P25)) (or (or ?v_30 ?v_74) ?v_181)) (or (or P8 P14) ?v_189)) (or (or ?v_43 ?v_141) ?v_4)) (or (or ?v_126 ?v_77) P0)) (or (or P35 ?v_42) ?v_116)) (or (or ?v_134 ?v_115) ?v_37)) (or (or P32 ?v_152) ?v_32)) (or (or ?v_154 P5) P12)) (or (or ?v_70 ?v_205) ?v_73)) (or (or ?v_14 P37) ?v_105)) (or (or ?v_27 ?v_35) ?v_12)) (or (or ?v_189 P12) ?v_168)) (or (or ?v_74 ?v_69) ?v_39)) (or (or ?v_42 ?v_120) ?v_65)) (or (or ?v_145 ?v_167) ?v_158)) (or (or ?v_143 ?v_113) ?v_114)) (or (or ?v_198 ?v_117) P39)) (or (or ?v_67 ?v_185) ?v_38)) (or (or ?v_199 ?v_197) ?v_141)) (or (or ?v_115 ?v_6) ?v_203)) (or (or ?v_200 ?v_100) ?v_130)) (or (or ?v_82 ?v_20) P4)) (or (or ?v_94 ?v_185) ?v_141)) (or (or ?v_148 ?v_103) ?v_177)) (or (or ?v_12 ?v_164) P22)) (or (or ?v_198 ?v_103) ?v_196)) (or (or ?v_150 P30) ?v_171)) (or (or ?v_94 ?v_57) ?v_173)) (or (or ?v_27 ?v_199) ?v_201)) (or (or ?v_78 ?v_139) ?v_158)) (or (or ?v_107 ?v_74) ?v_29)) (or (or ?v_44 P18) ?v_119)) (or (or ?v_176 ?v_201) ?v_183)) (or (or P23 ?v_126) ?v_191)) (or (or ?v_23 ?v_109) P27)) (or (or ?v_179 ?v_194) ?v_174)) (or (or ?v_12 ?v_109) ?v_145)) (or (or ?v_57 ?v_202) ?v_92)) (or (or ?v_116 ?v_179) ?v_17)) (or (or ?v_90 ?v_172) P35)) (or (or ?v_109 ?v_19) ?v_49)) (or (or ?v_189 P5) ?v_181)) (or (or ?v_116 ?v_199) ?v_203)) (or (or P36 P12) ?v_28)) (or (or ?v_56 P27) ?v_200)) (or (or ?v_63 ?v_203) ?v_34)) (or (or ?v_17 ?v_27) P10)) (or (or ?v_127 ?v_152) ?v_123)) (or (or ?v_24 ?v_49) ?v_121)) (or (or ?v_54 ?v_96) ?v_19)) (or (or ?v_38 ?v_91) ?v_190)) (or (or P35 ?v_53) ?v_108)) (or (or ?v_44 ?v_52) ?v_175)) (or (or ?v_84 P21) ?v_6)) (or (or ?v_105 ?v_102) ?v_90)) (or (or ?v_114 P32) ?v_28)) (or (or ?v_149 P7) ?v_98)) (or (or ?v_169 ?v_160) ?v_178)) (or (or P38 ?v_151) P20)) (or (or ?v_122 P19) P5)) (or (or ?v_156 ?v_140) ?v_145)) (or (or ?v_65 ?v_44) ?v_22)) (or (or P34 ?v_42) ?v_39)) (or (or ?v_27 ?v_117) P25)) (or (or ?v_129 ?v_112) ?v_11)) (or (or P15 ?v_87) ?v_34)) (or (or P35 P10) ?v_24)) (or (or ?v_130 P14) ?v_144)) (or (or ?v_204 ?v_57) ?v_85)) (or (or ?v_174 ?v_200) ?v_127)) (or (or ?v_118 ?v_153) ?v_71)) (or (or ?v_56 ?v_67) ?v_205)) (or (or ?v_173 ?v_50) ?v_24)) (or (or ?v_59 P39) ?v_35)) (or (or ?v_48 ?v_171) ?v_199)) (or (or ?v_75 ?v_61) ?v_111)) (or (or ?v_37 ?v_98) ?v_111)) (or (or ?v_131 ?v_207) ?v_72)) (or ?v_206 ?v_33)) (or (or ?v_32 ?v_132) ?v_161)) (or (or ?v_95 P24) P6)) (or (or ?v_85 ?v_135) ?v_74)) (or (or ?v_201 ?v_20) ?v_51)) (or (or ?v_3 ?v_191) P18)) (or (or ?v_67 ?v_195) ?v_93)) (or (or ?v_135 ?v_82) P35)) (or (or P27 P19) ?v_142)) (or (or ?v_51 ?v_128) P5)) (or (or ?v_149 ?v_204) ?v_111)) (or (or ?v_169 ?v_156) ?v_22)) (or (or ?v_207 ?v_162) ?v_176)) (or (or ?v_135 P15) ?v_173)) (or (or ?v_154 ?v_48) ?v_142)) (or (or ?v_140 ?v_181) ?v_91)) (or (or ?v_38 ?v_14) P16)) (or (or P30 ?v_29) ?v_132)) (or (or ?v_89 ?v_145) ?v_30)) (or (or ?v_115 ?v_101) P9)) (or (or ?v_6 ?v_66) ?v_172)) (or (or P30 ?v_181) ?v_35)) (or (or ?v_103 ?v_158) ?v_169)) (or (or ?v_51 ?v_102) P21)) (or (or P19 P30) ?v_105)) (or (or ?v_208 ?v_69) ?v_26)) (or (or ?v_106 ?v_130) P12)) (or (or P26 ?v_204) ?v_64)) (or (or P0 ?v_23) ?v_93)) (or (or P2 ?v_40) ?v_143)) (or (or ?v_41 P32) ?v_126)) (or (or ?v_74 ?v_135) ?v_137)) (or (or ?v_4 ?v_93) P2)) (or (or ?v_108 ?v_172) ?v_98)) (or (or ?v_125 ?v_38) ?v_116))))))))))))))))))))))))))))))))
(check-sat)
(exit)
